db/inputs/7101726519485157212433450622669021547.smt2
(set-logic QF_FP)
(declare-const x0 (_ FloatingPoint 8 24))
(declare-const x1 (_ FloatingPoint 8 24))
(declare-const x2 (_ FloatingPoint 8 24))
(declare-const x3 (_ FloatingPoint 8 24))
(declare-const x4 (_ FloatingPoint 8 24))
(declare-const x5 (_ FloatingPoint 8 24))
(declare-const x6 (_ FloatingPoint 8 24))
(declare-const x7 (_ FloatingPoint 8 24))
(declare-const x8 (_ FloatingPoint 8 24))
(declare-const x9 (_ FloatingPoint 8 24))
(declare-const x10 (_ FloatingPoint 8 24))
(declare-const x11 (_ FloatingPoint 8 24))
(declare-const x12 (_ FloatingPoint 8 24))
(declare-const x13 (_ FloatingPoint 8 24))
(declare-const x14 (_ FloatingPoint 8 24))
(declare-const x15 (_ FloatingPoint 8 24))
(declare-const x16 (_ FloatingPoint 8 24))
(assert (fp.gt (fp.neg (fp.neg (fp.sub RNE x14 x4))) (fp.neg (fp.add RNE (fp.div RNE x1 x11) (fp.div RNE x0 x3)))))
(assert (fp.gt (fp.div RNE (fp.sub RNE (fp.sub RNE x5 x16) (fp.neg x14)) (fp.sub RNE (fp.div RNE x2 x16) (fp.div RNE x10 x10))) (fp.mul RNE (fp.div RNE (fp.add RNE x13 x13) (fp.neg x7)) (fp.div RNE (fp.sub RNE x0 x0) (fp.sub RNE x15 x1)))))
(check-sat)
