db/data/7101726519485157212433450622669021547.z3.out
sat
-------------------
289.839390986
